(set-logic QF_S)
(declare-fun var0 () String)
(assert (RegexIn var0 (RegexConcat (RegexUnion (RegexUnion (Str2Reg "00") (Str2Reg "11")) (RegexUnion (Str2Reg "222") (Str2Reg "3"))) (RegexConcat (RegexPlus (RegexPlus (Str2Reg "4"))) (RegexConcat (RegexPlus (RegexUnion (Str2Reg "5") (Str2Reg "66"))) (RegexConcat (RegexStar (RegexPlus (Str2Reg "7"))) (RegexConcat (RegexUnion (RegexPlus (Str2Reg "888")) (RegexPlus (Str2Reg "99"))) (RegexConcat (RegexStar (RegexStar (Str2Reg "a"))) (RegexConcat (RegexPlus (RegexPlus (Str2Reg "bb"))) (RegexConcat (RegexPlus (RegexPlus (Str2Reg "cc"))) (RegexConcat (RegexPlus (RegexUnion (Str2Reg "dd") (Str2Reg "eee"))) (RegexConcat (RegexUnion (RegexUnion (Str2Reg "ff") (Str2Reg "ggg")) (RegexUnion (Str2Reg "hhh") (Str2Reg "iii"))) (RegexConcat (RegexStar (RegexUnion (Str2Reg "jjj") (Str2Reg "k"))) (RegexConcat (RegexStar (RegexPlus (Str2Reg "lll"))) (RegexConcat (RegexUnion (RegexPlus (Str2Reg "mmm")) (RegexPlus (Str2Reg "n"))) (RegexConcat (RegexUnion (RegexStar (Str2Reg "o")) (RegexStar (Str2Reg "ppp"))) (RegexConcat (RegexPlus (RegexPlus (Str2Reg "q"))) (RegexConcat (RegexUnion (RegexUnion (Str2Reg "rr") (Str2Reg "s")) (RegexUnion (Str2Reg "tt") (Str2Reg "u"))) (RegexConcat (RegexUnion (RegexPlus (Str2Reg "vvv")) (RegexPlus (Str2Reg "www"))) (RegexConcat (RegexUnion (RegexStar (Str2Reg "x")) (RegexStar (Str2Reg "y"))) (RegexConcat (RegexStar (RegexStar (Str2Reg "zzz"))) (RegexConcat (RegexUnion (RegexUnion (Str2Reg "A") (Str2Reg "BB")) (RegexUnion (Str2Reg "C") (Str2Reg "DD"))) (RegexConcat (RegexStar (RegexStar (Str2Reg "EEE"))) (RegexConcat (RegexPlus (RegexPlus (Str2Reg "F"))) (RegexConcat (RegexStar (RegexUnion (Str2Reg "G") (Str2Reg "HH"))) (RegexConcat (RegexUnion (RegexPlus (Str2Reg "I")) (RegexPlus (Str2Reg "JJJ"))) (RegexConcat (RegexStar (RegexStar (Str2Reg "K"))) (RegexConcat (RegexStar (RegexStar (Str2Reg "L"))) (RegexConcat (RegexPlus (RegexUnion (Str2Reg "MMM") (Str2Reg "NNN"))) (RegexConcat (RegexPlus (RegexStar (Str2Reg "OO"))) (RegexConcat (RegexStar (RegexPlus (Str2Reg "PPP"))) (RegexConcat (RegexUnion (RegexStar (Str2Reg "Q")) (RegexStar (Str2Reg "RRR"))) (RegexConcat (RegexUnion (RegexStar (Str2Reg "S")) (RegexStar (Str2Reg "TTT"))) (RegexConcat (RegexPlus (RegexStar (Str2Reg "UUU"))) (RegexConcat (RegexStar (RegexStar (Str2Reg "VVV"))) (RegexConcat (RegexUnion (RegexPlus (Str2Reg "W")) (RegexPlus (Str2Reg "X"))) (RegexConcat (RegexStar (RegexStar (Str2Reg "Y"))) (RegexConcat (RegexUnion (RegexUnion (Str2Reg "Z") (Str2Reg "!")) (RegexUnion (Str2Reg "\"") (Str2Reg "#"))) (RegexUnion (RegexPlus (Str2Reg "$")) (RegexPlus (Str2Reg "%%")))))))))))))))))))))))))))))))))))))))))
(check-sat)